Instance Name : r105
Date : 2022-07-18
Solution
Route 1 : 5 45 61 99 94 6
Route 2 : 72 39 23 67 55 54 4 25
Route 3 : 83 82 18 8 84 17 60 89
Route 4 : 21 73 75 22 41 56 74 58
Route 5 : 28 12 29 79 3 50 68 24 80
Route 6 : 92 42 14 44 38 43 100 91 93
Route 7 : 59 95 98 16 86 85 37 96
Route 8 : 2 15 57 87 97 13
Route 9 : 27 69 76 40 53 26
Route 10 : 63 64 11 90 10 32 70
Route 11 : 47 36 19 49 46 48
Route 12 : 31 30 51 81 78 34 35 77
Route 13 : 52 62 88 7
Route 14 : 33 65 71 9 66 20 1
